p cnf 523
-9 -163
-10 -166
-11 -169
-12 -172
-13 -175
-14 -178
-15 -181
-16 -184
-17 185
-18 186
-19 187
-20 188
-21 -10
-21 -11
10 11 21
-22 -12
-22 -13
12 13 22
-23 -14
-23 -15
14 15 23
-24 -16
-24 -17
16 17 24
-25 -18
-25 -19
18 19 25
-26 21
-26 22
-21 -22 26
-27 23
-27 24
-23 -24 27
-28 -20
-28 25
20 -25 28
-29 26
-29 27
-26 -27 29
-30 28
-30 29
-28 -29 30
-31 -9
-31 10
9 -10 31
-32 9
-32 -10
-9 10 32
-33 -31
-33 -32
31 32 33
-34 9
-34 10
-9 -10 34
-35 -9
-35 -33
9 33 35
-36 9
-36 33
-9 -33 36
-37 -35
-37 -36
35 36 37
-38 9
-38 -33
-9 33 38
-39 -34
-39 -38
34 38 39
-40 -10
-40 11
10 -11 40
-41 10
-41 -11
-10 11 41
-42 -40
-42 -41
40 41 42
-43 10
-43 11
-10 -11 43
-44 39
-44 -42
-39 42 44
-45 -39
-45 42
39 -42 45
-46 -44
-46 -45
44 45 46
-47 -39
-47 -42
39 42 47
-48 -43
-48 -47
43 47 48
-49 -11
-49 12
11 -12 49
-50 11
-50 -12
-11 12 50
-51 -49
-51 -50
49 50 51
-52 11
-52 12
-11 -12 52
-53 48
-53 -51
-48 51 53
-54 -48
-54 51
48 -51 54
-55 -53
-55 -54
53 54 55
-56 -48
-56 -51
48 51 56
-57 -52
-57 -56
52 56 57
-58 -12
-58 13
12 -13 58
-59 12
-59 -13
-12 13 59
-60 -58
-60 -59
58 59 60
-61 12
-61 13
-12 -13 61
-62 57
-62 -60
-57 60 62
-63 -57
-63 60
57 -60 63
-64 -62
-64 -63
62 63 64
-65 -57
-65 -60
57 60 65
-66 -61
-66 -65
61 65 66
-67 -13
-67 14
13 -14 67
-68 13
-68 -14
-13 14 68
-69 -67
-69 -68
67 68 69
-70 13
-70 14
-13 -14 70
-71 66
-71 -69
-66 69 71
-72 -66
-72 69
66 -69 72
-73 -71
-73 -72
71 72 73
-74 -66
-74 -69
66 69 74
-75 -70
-75 -74
70 74 75
-76 -14
-76 15
14 -15 76
-77 14
-77 -15
-14 15 77
-78 -76
-78 -77
76 77 78
-79 14
-79 15
-14 -15 79
-80 75
-80 -78
-75 78 80
-81 -75
-81 78
75 -78 81
-82 -80
-82 -81
80 81 82
-83 -75
-83 -78
75 78 83
-84 -79
-84 -83
79 83 84
-85 -15
-85 16
15 -16 85
-86 15
-86 -16
-15 16 86
-87 -85
-87 -86
85 86 87
-88 15
-88 16
-15 -16 88
-89 84
-89 -87
-84 87 89
-90 -84
-90 87
84 -87 90
-91 -89
-91 -90
89 90 91
-92 -84
-92 -87
84 87 92
-93 -88
-93 -92
88 92 93
-94 -16
-94 17
16 -17 94
-95 16
-95 -17
-16 17 95
-96 -94
-96 -95
94 95 96
-97 16
-97 17
-16 -17 97
-98 93
-98 -96
-93 96 98
-99 -93
-99 96
93 -96 99
-100 -98
-100 -99
98 99 100
-101 -93
-101 -96
93 96 101
-102 -97
-102 -101
97 101 102
-103 -17
-103 18
17 -18 103
-104 17
-104 -18
-17 18 104
-105 -103
-105 -104
103 104 105
-106 17
-106 18
-17 -18 106
-107 102
-107 -105
-102 105 107
-108 -102
-108 105
102 -105 108
-109 -107
-109 -108
107 108 109
-110 -102
-110 -105
102 105 110
-111 -106
-111 -110
106 110 111
-112 -18
-112 19
18 -19 112
-113 18
-113 -19
-18 19 113
-114 -112
-114 -113
112 113 114
-115 18
-115 19
-18 -19 115
-116 111
-116 -114
-111 114 116
-117 -111
-117 114
111 -114 117
-118 -116
-118 -117
116 117 118
-119 -111
-119 -114
111 114 119
-120 -115
-120 -119
115 119 120
-121 -19
-121 20
19 -20 121
-122 19
-122 -20
-19 20 122
-123 -121
-123 -122
121 122 123
-124 19
-124 20
-19 -20 124
-125 120
-125 -123
-120 123 125
-126 -120
-126 123
120 -123 126
-127 -125
-127 -126
125 126 127
-128 -120
-128 -123
120 123 128
-129 -124
-129 -128
124 128 129
-130 9
-130 -37
-9 37 130
-131 -9
-131 11
9 -11 131
-132 -130
-132 -131
130 131 132
-133 9
-133 -46
-9 46 133
-134 -9
-134 12
9 -12 134
-135 -133
-135 -134
133 134 135
-136 9
-136 -55
-9 55 136
-137 -9
-137 13
9 -13 137
-138 -136
-138 -137
136 137 138
-139 9
-139 -64
-9 64 139
-140 -9
-140 14
9 -14 140
-141 -139
-141 -140
139 140 141
-142 9
-142 -73
-9 73 142
-143 -9
-143 15
9 -15 143
-144 -142
-144 -143
142 143 144
-145 9
-145 -82
-9 82 145
-146 -9
-146 16
9 -16 146
-147 -145
-147 -146
145 146 147
-148 9
-148 -91
-9 91 148
-149 -9
-149 17
9 -17 149
-150 -148
-150 -149
148 149 150
-151 9
-151 -100
-9 100 151
-152 -9
-152 18
9 -18 152
-153 -151
-153 -152
151 152 153
-154 9
-154 -109
-9 109 154
-155 -9
-155 19
9 -19 155
-156 -154
-156 -155
154 155 156
-157 9
-157 -118
-9 118 157
-158 -9
-158 20
9 -20 158
-159 -157
-159 -158
157 158 159
-160 9
-160 -127
-9 127 160
-161 1
-161 30
-1 -30 161
-162 -30
-162 31
30 -31 162
-163 -161
-163 -162
161 162 163
-164 2
-164 30
-2 -30 164
-165 -30
-165 -132
30 132 165
-166 -164
-166 -165
164 165 166
-167 3
-167 30
-3 -30 167
-168 -30
-168 -135
30 135 168
-169 -167
-169 -168
167 168 169
-170 4
-170 30
-4 -30 170
-171 -30
-171 -138
30 138 171
-172 -170
-172 -171
170 171 172
-173 5
-173 30
-5 -30 173
-174 -30
-174 -141
30 141 174
-175 -173
-175 -174
173 174 175
-176 6
-176 30
-6 -30 176
-177 -30
-177 -144
30 144 177
-178 -176
-178 -177
176 177 178
-179 7
-179 30
-7 -30 179
-180 -30
-180 -147
30 147 180
-181 -179
-181 -180
179 180 181
-182 8
-182 30
-8 -30 182
-183 -30
-183 -150
30 150 183
-184 -182
-184 -183
182 183 184
-185 -30
-185 -153
30 153 185
-186 -30
-186 -156
30 156 186
-187 -30
-187 -159
30 159 187
-188 -30
-188 160
30 -160 188
-189 -20
-189 129
20 -129 189
-190 9
-190 -189
-9 189 190
190
